Running HiGHS 1.7.2 (git hash: 5ce7a2753): Copyright (c) 2024 HiGHS under MIT licence terms
Coefficient ranges:
  Matrix [1e+00, 1e+00]
  Cost   [1e+00, 1e+00]
  Bound  [1e+00, 1e+00]
  RHS    [1e+00, 1e+00]
Presolving model
2762 rows, 273 cols, 5744 nonzeros  0s
1527 rows, 273 cols, 3274 nonzeros  0s
741 rows, 271 cols, 2783 nonzeros  0s
699 rows, 271 cols, 2742 nonzeros  0s
Objective function is integral with scale 1

Solving MIP model with:
   699 rows
   271 cols (271 binary, 0 integer, 0 implied int., 0 continuous)
   2742 nonzeros

        Nodes      |    B&B Tree     |            Objective Bounds              |  Dynamic Constraints |       Work      
     Proc. InQueue |  Leaves   Expl. | BestBound       BestSol              Gap |   Cuts   InLp Confl. | LpIters     Time

         0       0         0   0.00%   2               inf                  inf        0      0      0         0     0.0s
         0       0         0   0.00%   3.638019822     inf                  inf        0      0      6       744     0.0s
 R       0       0         0   0.00%   3.717908082     5                 25.64%      133      2      6       963     0.1s

Solving report
  Status            Optimal
  Primal bound      5
  Dual bound        5
  Gap               0% (tolerance: 0.01%)
  Solution status   feasible
                    5 (objective)
                    0 (bound viol.)
                    0 (int. viol.)
                    0 (row viol.)
  Timing            0.14 (total)
                    0.02 (presolve)
                    0.00 (postsolve)
  Nodes             1
  LP iterations     1591 (total)
                    0 (strong br.)
                    847 (separation)
                    0 (heuristics)
ARGS = ["1", "300", "selected_instances/03.txt"]
instance = (20, 95, [[9, 19, 4, 14, 16, 17, 6, 5, 11], [17, 18, 8, 6, 7, 12, 19, 3, 14], [4, 14, 18, 8, 10, 6, 2, 5], [6, 7, 1, 3, 9, 19, 13, 14, 20, 17, 8], [12, 15, 9, 13, 20, 16, 8, 17, 6, 1, 7, 3], [4, 11, 2, 15, 19, 20, 1, 3, 8, 10, 5, 7], [8, 10, 4, 2, 11, 9, 14, 5, 20, 16, 6], [7, 2, 13, 17, 18, 3, 5, 6, 11, 4], [13, 14, 1, 17, 18, 10, 5, 4, 11, 7], [7, 17, 9, 3, 12, 15, 6, 19, 13, 14, 20], [6, 7, 15, 9, 8, 1], [5, 15, 2, 10, 13, 20, 16], [9, 8, 5, 19, 4, 20, 16, 12, 17, 18, 10], [9, 1, 3, 17, 18, 4, 7, 2, 10], [5, 6, 19, 16, 12, 11, 18, 10], [18, 1, 15, 5, 13, 12, 19, 7], [2, 10, 9, 20, 8, 18, 1, 14, 5, 13, 4], [2, 16, 9, 8, 17, 14, 3, 15, 13], [20, 1, 15, 6, 13, 4, 2, 10, 16], [19, 17, 5, 6, 13, 4, 12, 7, 10]], 13)
round.(value.(model[:x])) = [0.0 0.0 0.0 0.0 1.0 0.0 0.0 0.0 0.0 0.0 0.0 0.0 0.0; 0.0 0.0 0.0 0.0 1.0 0.0 0.0 0.0 0.0 0.0 0.0 0.0 0.0; 0.0 0.0 1.0 0.0 0.0 0.0 0.0 0.0 0.0 0.0 0.0 0.0 0.0; 0.0 0.0 0.0 1.0 0.0 0.0 0.0 0.0 0.0 0.0 0.0 0.0 0.0; 0.0 0.0 0.0 1.0 0.0 0.0 0.0 0.0 0.0 0.0 0.0 0.0 0.0; 0.0 1.0 0.0 0.0 0.0 0.0 0.0 0.0 0.0 0.0 0.0 0.0 0.0; 0.0 0.0 1.0 0.0 0.0 0.0 0.0 0.0 0.0 0.0 0.0 0.0 0.0; 1.0 0.0 0.0 0.0 0.0 0.0 0.0 0.0 0.0 0.0 0.0 0.0 0.0; 1.0 0.0 0.0 0.0 0.0 0.0 0.0 0.0 0.0 0.0 0.0 0.0 0.0; 0.0 0.0 0.0 1.0 0.0 0.0 0.0 0.0 0.0 0.0 0.0 0.0 0.0; 0.0 0.0 0.0 1.0 0.0 0.0 0.0 0.0 0.0 0.0 0.0 0.0 0.0; 0.0 0.0 1.0 0.0 0.0 0.0 0.0 0.0 0.0 0.0 0.0 0.0 0.0; 0.0 1.0 0.0 0.0 0.0 0.0 0.0 0.0 0.0 0.0 0.0 0.0 0.0; 0.0 1.0 0.0 0.0 0.0 0.0 0.0 0.0 0.0 0.0 0.0 0.0 0.0; 0.0 0.0 0.0 0.0 1.0 0.0 0.0 0.0 0.0 0.0 0.0 0.0 0.0; 1.0 0.0 0.0 0.0 0.0 0.0 0.0 0.0 0.0 0.0 0.0 0.0 0.0; 0.0 0.0 1.0 0.0 0.0 0.0 0.0 0.0 0.0 0.0 0.0 0.0 0.0; 0.0 0.0 0.0 1.0 0.0 0.0 0.0 0.0 0.0 0.0 0.0 0.0 0.0; 0.0 0.0 1.0 0.0 0.0 0.0 0.0 0.0 0.0 0.0 0.0 0.0 0.0; 1.0 0.0 0.0 0.0 0.0 0.0 0.0 0.0 0.0 0.0 0.0 0.0 0.0]
round.(value.(model[:y])) = [1.0, 1.0, 1.0, 1.0, 1.0, 0.0, 0.0, 0.0, 0.0, 0.0, 0.0, 0.0, 0.0]
(n, m, A) = (20, 95, [[9, 19, 4, 14, 16, 17, 6, 5, 11], [17, 18, 8, 6, 7, 12, 19, 3, 14], [4, 14, 18, 8, 10, 6, 2, 5], [6, 7, 1, 3, 9, 19, 13, 14, 20, 17, 8], [12, 15, 9, 13, 20, 16, 8, 17, 6, 1, 7, 3], [4, 11, 2, 15, 19, 20, 1, 3, 8, 10, 5, 7], [8, 10, 4, 2, 11, 9, 14, 5, 20, 16, 6], [7, 2, 13, 17, 18, 3, 5, 6, 11, 4], [13, 14, 1, 17, 18, 10, 5, 4, 11, 7], [7, 17, 9, 3, 12, 15, 6, 19, 13, 14, 20], [6, 7, 15, 9, 8, 1], [5, 15, 2, 10, 13, 20, 16], [9, 8, 5, 19, 4, 20, 16, 12, 17, 18, 10], [9, 1, 3, 17, 18, 4, 7, 2, 10], [5, 6, 19, 16, 12, 11, 18, 10], [18, 1, 15, 5, 13, 12, 19, 7], [2, 10, 9, 20, 8, 18, 1, 14, 5, 13, 4], [2, 16, 9, 8, 17, 14, 3, 15, 13], [20, 1, 15, 6, 13, 4, 2, 10, 16], [19, 17, 5, 6, 13, 4, 12, 7, 10]])
 1 (5), 2 (5), 3 (3), 4 (4), 5 (4), 6 (2), 7 (3), 8 (1), 9 (1), 10 (4), 11 (4), 12 (3), 13 (2), 14 (2), 15 (5), 16 (1), 17 (3), 18 (4), 19 (3), 20 (1),
objective_bound(model) = 5.0
objective_value(model) = 5.0
